100 2034
499 996 629 265 823 1002 1199 601 396 1104 504 1020 708 527 348 817 811 215 520 879 991 804 1001 1093 546 244 1173 1021 263 294 586 1005 705 912 441 870 450 900 864 1097 913 795 239 1048 504 468 858 834 1278 327 300 280 424 306 1153 1119 424 529 1069 636 245 435 471 739 712 634 966 1011 970 315 378 604 670 1179 900 1087 635 922 213 821 576 1179 203 887 1014 1182 623 388 1193 900 327 1155 487 762 665 972 678 1069 838 1146 
299 796 429 65 623 702 999 401 196 904 204 720 408 327 148 617 611 15 320 679 791 604 801 893 246 44 973 821 63 94 386 805 505 612 241 570 150 700 564 897 713 595 39 848 304 168 658 634 978 127 100 80 224 106 953 919 224 329 869 336 45 235 271 539 512 434 766 811 770 115 78 404 470 979 700 887 435 722 13 621 376 979 3 687 814 882 423 188 993 700 127 955 287 562 465 772 478 869 638 946 
